certificates/rado_a12_c80_N33.cnf
c Rad2 upper bound instance: x1 + 12*x2 - x3 = 80, interval [1,33]
p cnf 33 180
1 5 7 0
-1 -5 -7 0
1 8 17 0
-1 -8 -17 0
1 9 29 0
-1 -9 -29 0
2 6 7 0
-2 -6 -7 0
2 8 18 0
-2 -8 -18 0
2 9 30 0
-2 -9 -30 0
3 7 0
-3 -7 0
3 8 19 0
-3 -8 -19 0
3 9 31 0
-3 -9 -31 0
4 7 8 0
-4 -7 -8 0
4 8 20 0
-4 -8 -20 0
4 9 32 0
-4 -9 -32 0
5 7 9 0
-5 -7 -9 0
5 8 21 0
-5 -8 -21 0
5 9 33 0
-5 -9 -33 0
6 7 10 0
-6 -7 -10 0
6 8 22 0
-6 -8 -22 0
7 11 0
-7 -11 0
7 8 23 0
-7 -8 -23 0
7 8 12 0
-7 -8 -12 0
8 24 0
-8 -24 0
1 6 9 0
-1 -6 -9 0
7 9 13 0
-7 -9 -13 0
8 9 25 0
-8 -9 -25 0
2 6 10 0
-2 -6 -10 0
7 10 14 0
-7 -10 -14 0
8 10 26 0
-8 -10 -26 0
3 6 11 0
-3 -6 -11 0
7 11 15 0
-7 -11 -15 0
8 11 27 0
-8 -11 -27 0
4 6 12 0
-4 -6 -12 0
7 12 16 0
-7 -12 -16 0
8 12 28 0
-8 -12 -28 0
5 6 13 0
-5 -6 -13 0
7 13 17 0
-7 -13 -17 0
8 13 29 0
-8 -13 -29 0
6 14 0
-6 -14 0
7 14 18 0
-7 -14 -18 0
8 14 30 0
-8 -14 -30 0
6 7 15 0
-6 -7 -15 0
7 15 19 0
-7 -15 -19 0
8 15 31 0
-8 -15 -31 0
6 8 16 0
-6 -8 -16 0
7 16 20 0
-7 -16 -20 0
8 16 32 0
-8 -16 -32 0
6 9 17 0
-6 -9 -17 0
7 17 21 0
-7 -17 -21 0
8 17 33 0
-8 -17 -33 0
6 10 18 0
-6 -10 -18 0
7 18 22 0
-7 -18 -22 0
6 11 19 0
-6 -11 -19 0
7 19 23 0
-7 -19 -23 0
6 12 20 0
-6 -12 -20 0
7 20 24 0
-7 -20 -24 0
1 5 21 0
-1 -5 -21 0
6 13 21 0
-6 -13 -21 0
7 21 25 0
-7 -21 -25 0
2 5 22 0
-2 -5 -22 0
6 14 22 0
-6 -14 -22 0
7 22 26 0
-7 -22 -26 0
3 5 23 0
-3 -5 -23 0
6 15 23 0
-6 -15 -23 0
7 23 27 0
-7 -23 -27 0
4 5 24 0
-4 -5 -24 0
6 16 24 0
-6 -16 -24 0
7 24 28 0
-7 -24 -28 0
5 25 0
-5 -25 0
6 17 25 0
-6 -17 -25 0
7 25 29 0
-7 -25 -29 0
5 6 26 0
-5 -6 -26 0
6 18 26 0
-6 -18 -26 0
7 26 30 0
-7 -26 -30 0
5 7 27 0
-5 -7 -27 0
6 19 27 0
-6 -19 -27 0
7 27 31 0
-7 -27 -31 0
5 8 28 0
-5 -8 -28 0
6 20 28 0
-6 -20 -28 0
7 28 32 0
-7 -28 -32 0
5 9 29 0
-5 -9 -29 0
6 21 29 0
-6 -21 -29 0
7 29 33 0
-7 -29 -33 0
5 10 30 0
-5 -10 -30 0
6 22 30 0
-6 -22 -30 0
5 11 31 0
-5 -11 -31 0
6 23 31 0
-6 -23 -31 0
5 12 32 0
-5 -12 -32 0
6 24 32 0
-6 -24 -32 0
1 4 33 0
-1 -4 -33 0
5 13 33 0
-5 -13 -33 0
6 25 33 0
-6 -25 -33 0
