certificates/rado_a12_c80_N33.drat
7 -31 0
-7 -33 0
-33 0
-7 31 0
7 0
-3 0
-11 0
31 0
6 0
-27 0
-2 0
-10 0
-14 0
-15 0
-23 0
8 0
5 0
-22 0
-12 0
-24 0
-16 0
-28 0
-4 0
-25 0
-1 0
-9 0
-13 0
-21 0
-26 0
0
